# 3.4.21.68_group0_PF00089_30-85~3.4.21.7_group0_PF00089_30-85.sdpA
# All alignment positions within 5\AA of a ligand/cat site passing the sdpA filter.  Column indices start with 0.
30
31
49
136
137
139
141
158
198
220
221
228
237
